num_offers = 25;
num_halls = 10;
start=[32,49,9,12,28,17,24,39,83,22,17,92,31,45,46,3,43,42,35,66,17,72,23,15,64];
end=[82,77,72,87,90,39,79,62,95,65,50,98,62,60,74,71,59,87,50,89,94,90,43,88,80];
price=[4184,2416,1761,6515,2005,1188,4923,416,645,2198,391,410,1234,989,2191,2401,1074,1899,1428,1716,6957,247,1380,2970,284];
requirement=[946,455,280,426,490,952,744,668,607,210,716,615,360,478,668,574,376,851,853,570,460,323,723,365,434];
capacity=[459,626,297,669,666,934,755,777,923,618];
